c ren 1 -> 1
c ren 2 -> 2
c ren 3 -> 3
c ren 4 -> 4
c ren 5 -> 5
c ren 6 -> 6
c ren 7 -> 7
c ren 8 -> 8
c ren 9 -> 9
c ren 10 -> 10
c ren 11 -> 11
c ren 12 -> 12
c ren 13 -> 13
c ren 14 -> 14
c ren 15 -> 15
c ren 16 -> 16
c ren 17 -> 17
c ren 18 -> 18
c ren 19 -> 19
c ren 20 -> 20
c ren 21 -> 21
c ren 22 -> 22
c ren 23 -> 23
c ren 24 -> 24
c ren 25 -> 25
c ren 26 -> 26
c ren 27 -> 27
c ren 28 -> 28
c ren 29 -> 29
c ren 30 -> 30
c ren 31 -> 31
c ren 32 -> 32
c ren 33 -> 33
c ren 34 -> 34
c ren 35 -> 35
c ren 36 -> 36
c ren 37 -> 37
c ren 38 -> 38
c ren 39 -> 39
c ren 40 -> 40
c ren 41 -> 41
c ren 44 -> 42
c ren 47 -> 43
c ren 60 -> 44
c ren 69 -> 45
c ren 78 -> 46
c ren 81 -> 47
c ren 97 -> 48
c ren 106 -> 49
c ren 115 -> 50
c ren 118 -> 51
c ren 134 -> 52
c ren 143 -> 53
c ren 152 -> 54
c ren 156 -> 55
c ren 172 -> 56
c ren 175 -> 57
c ren 191 -> 58
c ren 196 -> 59
c ren 199 -> 60
c ren 212 -> 61
c ren 221 -> 62
c ren 230 -> 63
c ren 234 -> 64
c ren 250 -> 65
c ren 254 -> 66
c ren 270 -> 67
c ren 286 -> 68
c ren 305 -> 69
c ren 324 -> 70
c ren 343 -> 71
c ren 380 -> 72
c ren 399 -> 73
c ren 418 -> 74
c ren 437 -> 75
c ren 454 -> 76
c ren 455 -> 77
c ren 456 -> 78
c ren 457 -> 79
c ren 458 -> 80
c ren 459 -> 81
c ren 460 -> 82
c ren 461 -> 83
c ren 462 -> 84
c ren 463 -> 85
c ren 464 -> 86
c ren 465 -> 87
c ren 466 -> 88
c ren 467 -> 89
c ren 468 -> 90
c ren 469 -> 91
c ren 470 -> 92
c ren 471 -> 93
c ren 499 -> 94
c ren 642 -> 95
c ren 679 -> 96
c ren 698 -> 97
c ren 717 -> 98
c ren 736 -> 99
c ren 773 -> 100
c ren 791 -> 101
c ren 810 -> 102
c ren 829 -> 103
c ren 878 -> 104
c ren 879 -> 105
c ren 880 -> 106
c ren 881 -> 107
c ren 882 -> 108
c ren 883 -> 109
c ren 884 -> 110
c ren 885 -> 111
c ren 886 -> 112
c ren 887 -> 113
c ren 888 -> 114
p cnf 114 1292
a 1 2 3 4 5 6 7 8 9 10 11 12 13 14 15 16 17 18 19 20 21 22 23 24 25 26 27 28 29 30 31 32 33 34 35 36 37 38 39 40 41 80 81 82 83 84 85 86 87 88 89 90 91 92 93 0
d 76 80 81 82 83 84 85 86 87 88 89 90 91 92 93 0
d 77 80 81 82 83 84 85 86 87 88 89 90 91 92 93 0
d 78 80 81 82 83 0
d 79 84 85 86 87 0
e 42 43 44 45 46 47 48 49 50 51 52 53 54 55 56 57 58 59 60 61 62 63 64 65 66 67 68 69 70 71 72 73 74 75 94 95 96 97 98 99 100 101 102 103 104 105 106 107 108 109 110 111 112 113 114 0
1 5 -42 0
1 -5 42 0
-1 5 42 0
-1 -5 -42 0
9 13 -43 0
9 -13 43 0
-9 13 43 0
-9 -13 -43 0
-33 -41 -42 -43 45 -78 -94 0
-33 -41 42 -43 -45 -78 -94 0
-33 -41 -42 -43 45 78 94 0
-33 -41 -42 43 -45 -78 -94 0
-33 -41 42 -43 -45 78 94 0
-33 -41 -42 -43 -44 45 -46 0
33 -42 -43 44 -45 46 0
-33 -41 42 -43 45 78 -94 0
-17 -18 19 -20 44 0
17 -18 -19 20 -44 0
41 42 -43 44 -45 -46 0
-17 -18 19 20 -44 0
-17 18 -19 20 -44 0
41 42 -43 -44 45 -46 0
17 -18 -19 -20 44 0
17 18 -19 20 44 0
-17 18 19 20 44 0
17 18 19 20 -44 0
17 18 -19 -20 -44 0
41 42 -43 -44 -45 46 0
17 -18 19 -20 -44 0
17 18 19 -20 44 0
-33 -41 42 43 -45 -78 94 0
-17 18 19 -20 -44 0
-17 -18 -19 -20 -44 0
-33 -41 42 43 45 -78 -94 0
-17 -18 -19 20 44 0
17 -18 19 20 44 0
-33 -41 -42 -43 -45 -78 94 0
-33 -41 42 43 -45 78 -94 0
41 -42 -43 44 45 -46 0
-33 -41 42 43 45 78 94 0
-17 18 -19 -20 44 0
41 42 -43 44 45 46 0
-33 -41 -42 43 45 -78 94 0
-21 -22 23 -24 45 0
21 -22 -23 24 -45 0
-21 -22 23 24 -45 0
-21 22 -23 24 -45 0
21 -22 -23 -24 45 0
21 22 -23 24 45 0
21 22 23 24 -45 0
21 22 -23 -24 -45 0
21 -22 23 -24 -45 0
21 22 23 -24 45 0
-21 22 23 -24 -45 0
-21 -22 -23 -24 -45 0
-21 -22 -23 24 45 0
21 -22 23 24 45 0
33 -42 43 45 -78 -94 0
-33 -41 42 -43 45 -78 94 0
-21 22 -23 -24 45 0
33 -42 43 -45 -78 94 0
33 42 -43 -45 78 -94 0
41 42 -43 45 -78 -94 0
33 -42 43 44 45 46 0
41 -42 -43 -44 45 46 0
41 -42 -43 -45 78 94 0
33 -42 43 44 -45 -46 0
33 -42 -43 -45 78 94 0
33 -42 -43 -44 45 46 0
33 42 -43 -45 -78 94 0
33 -42 -43 45 -78 94 0
33 42 -43 45 -78 -94 0
41 -42 43 -45 -78 94 0
41 -42 -43 45 78 -94 0
41 42 -43 45 78 94 0
41 -42 43 45 -78 -94 0
41 42 -43 -45 -78 94 0
41 42 -43 -45 78 -94 0
41 -42 43 -45 78 -94 0
33 -42 -43 45 78 -94 0
33 42 -43 45 78 94 0
41 -42 43 44 -45 -46 0
41 -42 43 -44 45 -46 0
33 -42 43 -44 -45 46 0
41 -42 43 44 45 46 0
41 -42 -43 44 -45 46 0
41 -42 43 45 78 94 0
41 -42 43 -44 -45 46 0
17 21 -47 0
17 -21 47 0
-33 -41 42 43 44 -45 -46 0
-17 21 47 0
-17 -21 -47 0
-33 -41 -42 -43 -45 78 -94 0
-25 -29 -37 -41 -47 -48 49 50 0
25 -29 -37 -41 47 -48 49 50 0
-25 -29 -37 -41 -47 -48 -49 -50 0
-25 29 -37 -41 47 -48 49 50 0
25 -29 -37 -41 47 -48 -49 -50 0
-25 -29 -37 -41 -47 48 49 -50 0
25 -29 37 -47 -48 49 50 0
25 -29 -37 -41 47 48 49 -50 0
25 -29 37 -47 -48 -49 -50 0
-25 -29 37 -47 48 -49 -50 0
25 -29 37 47 48 -49 -50 0
25 -29 37 -47 48 49 -50 0
25 -29 41 47 -48 -49 50 0
25 -29 37 47 -48 -49 50 0
-1 -2 3 -4 48 0
1 -2 -3 4 -48 0
-1 -2 3 4 -48 0
-1 2 -3 4 -48 0
1 -2 -3 -4 48 0
1 2 -3 4 48 0
1 2 3 4 -48 0
1 2 -3 -4 -48 0
1 -2 3 -4 -48 0
1 2 3 -4 48 0
-1 2 3 -4 -48 0
-1 -2 -3 -4 -48 0
-1 -2 -3 4 48 0
1 -2 3 4 48 0
-25 -29 -37 -41 47 -48 49 -50 0
-25 -29 37 -47 -48 -49 50 0
-1 2 -3 -4 48 0
-25 -29 41 -47 -48 -49 50 0
-5 -6 7 -8 49 0
5 -6 -7 8 -49 0
-5 -6 7 8 -49 0
-5 6 -7 8 -49 0
5 -6 -7 -8 49 0
5 6 -7 8 49 0
5 6 7 8 -49 0
5 6 -7 -8 -49 0
5 -6 7 -8 -49 0
5 6 7 -8 49 0
-5 6 7 -8 -49 0
-5 -6 -7 -8 -49 0
-5 -6 -7 8 49 0
5 -6 7 8 49 0
25 29 -37 -41 -47 48 -49 50 0
-25 -29 37 -47 -48 49 -50 0
-5 6 -7 -8 49 0
25 29 -37 -41 -47 -48 49 50 0
25 -29 41 47 48 -49 -50 0
25 -29 -37 -41 -47 -48 49 -50 0
-25 -29 37 47 48 -49 50 0
-25 29 -37 -41 47 48 -49 50 0
25 -29 41 -47 48 -49 50 0
25 -29 41 -47 48 49 -50 0
25 -29 41 -47 -48 49 50 0
25 -29 41 47 -48 49 -50 0
-25 29 -37 -41 47 -48 -49 -50 0
-25 -29 37 47 -48 -49 -50 0
25 -29 41 47 48 49 50 0
25 -29 -37 -41 -47 48 -49 -50 0
25 -29 41 -47 -48 -49 -50 0
-25 -29 41 -47 48 49 50 0
-25 29 -37 -41 -47 48 -49 -50 0
-25 29 37 47 48 49 50 0
25 -29 -37 -41 -47 -48 -49 50 0
-25 29 -37 -41 -47 -48 49 -50 0
18 22 -51 0
18 -22 51 0
-25 29 37 -47 -48 -49 -50 0
-18 22 51 0
-18 -22 -51 0
-25 29 37 -47 48 -49 50 0
-26 -30 -38 -41 -51 -52 53 54 0
26 -30 -38 -41 51 -52 53 54 0
-26 -30 -38 -41 -51 -52 -53 -54 0
-26 30 -38 -41 51 -52 53 54 0
26 -30 -38 -41 51 -52 -53 -54 0
-26 -30 -38 -41 -51 52 53 -54 0
26 -30 38 -51 -52 53 54 0
26 -30 -38 -41 51 52 53 -54 0
26 -30 38 -51 -52 -53 -54 0
-26 -30 38 -51 52 -53 -54 0
26 -30 38 51 52 -53 -54 0
26 -30 38 -51 52 53 -54 0
26 -30 41 51 -52 -53 54 0
26 -30 38 51 -52 -53 54 0
-9 -10 11 -12 52 0
9 -10 -11 12 -52 0
-9 -10 11 12 -52 0
-9 10 -11 12 -52 0
9 -10 -11 -12 52 0
9 10 -11 12 52 0
9 10 11 12 -52 0
9 10 -11 -12 -52 0
9 -10 11 -12 -52 0
9 10 11 -12 52 0
-9 10 11 -12 -52 0
-9 -10 -11 -12 -52 0
-9 -10 -11 12 52 0
9 -10 11 12 52 0
-26 -30 -38 -41 51 -52 53 -54 0
-26 -30 38 -51 -52 -53 54 0
-9 10 -11 -12 52 0
-26 -30 41 -51 -52 -53 54 0
-13 -14 15 -16 53 0
13 -14 -15 16 -53 0
-13 -14 15 16 -53 0
-13 14 -15 16 -53 0
13 -14 -15 -16 53 0
13 14 -15 16 53 0
13 14 15 16 -53 0
13 14 -15 -16 -53 0
13 -14 15 -16 -53 0
13 14 15 -16 53 0
-13 14 15 -16 -53 0
-13 -14 -15 -16 -53 0
-13 -14 -15 16 53 0
13 -14 15 16 53 0
26 30 -38 -41 -51 52 -53 54 0
-26 -30 38 -51 -52 53 -54 0
-13 14 -15 -16 53 0
26 30 -38 -41 -51 -52 53 54 0
26 -30 41 51 52 -53 -54 0
26 -30 -38 -41 -51 -52 53 -54 0
-26 -30 38 51 52 -53 54 0
-26 30 -38 -41 51 52 -53 54 0
26 -30 41 -51 52 -53 54 0
26 -30 41 -51 52 53 -54 0
26 -30 41 -51 -52 53 54 0
26 -30 41 51 -52 53 -54 0
-26 30 -38 -41 51 -52 -53 -54 0
-26 -30 38 51 -52 -53 -54 0
26 -30 41 51 52 53 54 0
26 -30 -38 -41 -51 52 -53 -54 0
26 -30 41 -51 -52 -53 -54 0
-26 -30 41 -51 52 53 54 0
-26 30 -38 -41 -51 52 -53 -54 0
-26 30 38 51 52 53 54 0
26 -30 -38 -41 -51 -52 -53 54 0
-26 30 -38 -41 -51 -52 53 -54 0
19 23 -55 0
19 -23 55 0
-26 30 38 -51 -52 -53 -54 0
-19 23 55 0
-19 -23 -55 0
-26 30 38 -51 52 -53 54 0
-27 -31 -39 -41 -48 52 -55 56 0
27 -31 -39 -41 -48 52 55 56 0
-27 -31 -39 -41 -48 -52 -55 -56 0
-27 31 -39 -41 -48 52 55 56 0
27 -31 -39 -41 -48 -52 55 -56 0
-27 -31 -39 -41 48 52 -55 -56 0
27 -31 39 -48 52 -55 56 0
27 -31 -39 -41 48 52 55 -56 0
27 -31 39 -48 -52 -55 -56 0
-27 -31 39 48 -52 -55 -56 0
27 -31 39 48 -52 55 -56 0
27 -31 39 48 52 -55 -56 0
27 -31 41 -48 -52 55 56 0
27 -31 39 -48 -52 55 56 0
27 -31 41 48 -52 55 -56 0
27 -31 -39 -41 -48 52 -55 -56 0
-27 -31 39 48 -52 55 56 0
-27 31 -39 -41 48 -52 55 56 0
27 -31 41 48 -52 -55 56 0
27 -31 41 48 52 -55 -56 0
27 -31 41 -48 52 -55 56 0
27 -31 41 -48 52 55 -56 0
-27 31 -39 -41 -48 -52 55 -56 0
-27 -31 39 -48 -52 55 -56 0
27 -31 41 48 52 55 56 0
27 -31 -39 -41 48 -52 -55 -56 0
27 -31 41 -48 -52 -55 -56 0
-27 -31 41 48 52 -55 56 0
-27 -31 -39 -41 -48 52 55 -56 0
-27 -31 39 -48 -52 -55 56 0
27 -31 -39 -41 -48 -52 -55 56 0
-27 -31 41 -48 -52 -55 56 0
20 24 -57 0
20 -24 57 0
-27 -31 39 -48 52 -55 -56 0
-20 24 57 0
-20 -24 -57 0
-27 -31 39 -48 52 55 56 0
-28 -32 -40 -41 -49 53 -57 58 0
28 -32 -40 -41 -49 53 57 58 0
-28 -32 -40 -41 -49 -53 -57 -58 0
-28 32 -40 -41 -49 53 57 58 0
28 -32 -40 -41 -49 -53 57 -58 0
-28 -32 -40 -41 49 53 -57 -58 0
28 -32 40 -49 53 -57 58 0
28 -32 -40 -41 49 53 57 -58 0
28 -32 40 -49 -53 -57 -58 0
-28 -32 40 49 -53 -57 -58 0
28 -32 40 49 -53 57 -58 0
28 -32 40 49 53 -57 -58 0
28 -32 41 -49 -53 57 58 0
28 -32 40 -49 -53 57 58 0
28 -32 41 49 -53 57 -58 0
28 -32 -40 -41 -49 53 -57 -58 0
-28 -32 40 49 -53 57 58 0
-28 32 -40 -41 49 -53 57 58 0
28 -32 41 49 -53 -57 58 0
28 -32 41 49 53 -57 -58 0
28 -32 41 -49 53 -57 58 0
28 -32 41 -49 53 57 -58 0
-28 32 -40 -41 -49 -53 57 -58 0
-28 -32 40 -49 -53 57 -58 0
28 -32 41 49 53 57 58 0
28 -32 -40 -41 49 -53 -57 -58 0
28 -32 41 -49 -53 -57 -58 0
-28 -32 41 49 53 -57 58 0
-28 -32 -40 -41 -49 53 57 -58 0
-28 -32 40 -49 -53 -57 58 0
28 -32 -40 -41 -49 -53 -57 58 0
-28 -32 41 -49 -53 -57 58 0
2 6 -59 0
2 -6 59 0
-28 -32 40 -49 53 -57 -58 0
-2 6 59 0
-2 -6 -59 0
-28 -32 40 -49 53 57 58 0
10 14 -60 0
10 -14 60 0
28 32 -40 -41 -49 53 -57 58 0
-10 14 60 0
-10 -14 -60 0
28 32 41 49 53 -57 58 0
-34 -41 -59 -60 62 -79 -95 0
-34 -41 59 -60 -62 -79 -95 0
-34 -41 -59 -60 62 79 95 0
-34 -41 -59 60 -62 -79 -95 0
-34 -41 59 -60 -62 79 95 0
-34 -41 -59 -60 -61 62 -63 0
34 -59 -60 61 -62 63 0
-34 -41 59 -60 62 79 -95 0
-25 -26 27 -28 61 0
25 -26 -27 28 -61 0
41 59 -60 61 -62 -63 0
-25 -26 27 28 -61 0
-25 26 -27 28 -61 0
41 59 -60 -61 62 -63 0
25 -26 -27 -28 61 0
25 26 -27 28 61 0
-25 26 27 28 61 0
25 26 27 28 -61 0
25 26 -27 -28 -61 0
41 59 -60 -61 -62 63 0
25 -26 27 -28 -61 0
25 26 27 -28 61 0
-34 -41 59 60 -62 -79 95 0
-25 26 27 -28 -61 0
-25 -26 -27 -28 -61 0
-34 -41 59 60 62 -79 -95 0
-25 -26 -27 28 61 0
25 -26 27 28 61 0
-34 -41 -59 -60 -62 -79 95 0
-34 -41 59 60 -62 79 -95 0
41 -59 -60 61 62 -63 0
-34 -41 59 60 62 79 95 0
-25 26 -27 -28 61 0
41 59 -60 61 62 63 0
-34 -41 -59 60 62 -79 95 0
-29 -30 31 -32 62 0
29 -30 -31 32 -62 0
-29 -30 31 32 -62 0
-29 30 -31 32 -62 0
29 -30 -31 -32 62 0
29 30 -31 32 62 0
29 30 31 32 -62 0
29 30 -31 -32 -62 0
29 -30 31 -32 -62 0
29 30 31 -32 62 0
-29 30 31 -32 -62 0
-29 -30 -31 -32 -62 0
-29 -30 -31 32 62 0
29 -30 31 32 62 0
34 -59 60 62 -79 -95 0
-34 -41 59 -60 62 -79 95 0
-29 30 -31 -32 62 0
34 -59 60 -62 -79 95 0
34 59 -60 -62 79 -95 0
41 59 -60 62 -79 -95 0
34 -59 60 61 62 63 0
41 -59 -60 -61 62 63 0
41 -59 -60 -62 79 95 0
34 -59 60 61 -62 -63 0
34 -59 -60 -62 79 95 0
34 -59 -60 -61 62 63 0
34 59 -60 -62 -79 95 0
34 -59 -60 62 -79 95 0
34 59 -60 62 -79 -95 0
41 -59 60 -62 -79 95 0
41 -59 -60 62 79 -95 0
41 59 -60 62 79 95 0
41 -59 60 62 -79 -95 0
41 59 -60 -62 -79 95 0
41 59 -60 -62 79 -95 0
41 -59 60 -62 79 -95 0
34 -59 -60 62 79 -95 0
34 59 -60 62 79 95 0
41 -59 60 61 -62 -63 0
41 -59 60 -61 62 -63 0
34 -59 60 -61 -62 63 0
41 -59 60 61 62 63 0
41 -59 -60 61 -62 63 0
41 -59 60 62 79 95 0
41 -59 60 -61 -62 63 0
3 7 -64 0
3 -7 64 0
-34 -41 59 60 -61 -62 63 0
-34 -41 59 60 61 -62 -63 0
-3 7 64 0
34 59 60 -62 -79 -95 0
-3 -7 -64 0
-34 -41 -59 -60 -62 79 -95 0
-34 -41 59 60 61 62 63 0
-11 -15 -35 -41 -44 61 -64 65 0
11 -15 -35 -41 -44 61 64 65 0
34 59 60 62 79 -95 0
-11 -15 -35 -41 -44 -61 -64 -65 0
-11 15 -35 -41 -44 61 64 65 0
11 15 -35 -41 44 61 -64 -65 0
11 -15 -35 -41 -44 -61 64 -65 0
-11 -15 -35 -41 44 61 -64 -65 0
-11 15 -35 -41 44 61 64 -65 0
11 -15 35 -44 61 -64 65 0
11 -15 -35 -41 44 61 64 -65 0
-11 15 35 -44 -61 64 65 0
11 -15 35 -44 -61 -64 -65 0
-11 -15 35 44 -61 -64 -65 0
-11 -15 41 44 -61 64 65 0
11 -15 35 44 -61 64 -65 0
11 -15 35 44 61 -64 -65 0
-11 -15 41 -44 61 -64 -65 0
11 -15 41 -44 -61 64 65 0
11 -15 35 -44 -61 64 65 0
-11 -15 35 44 61 64 -65 0
11 -15 41 44 -61 64 -65 0
11 -15 -35 -41 -44 61 -64 -65 0
-11 -15 41 -44 61 64 65 0
-11 -15 35 44 -61 64 65 0
-11 15 -35 -41 44 -61 64 65 0
11 -15 -35 -41 44 61 -64 65 0
11 -15 41 44 -61 -64 65 0
11 -15 41 44 61 -64 -65 0
11 -15 35 44 61 64 65 0
11 -15 41 -44 61 -64 65 0
11 -15 41 -44 61 64 -65 0
-11 -15 35 44 61 -64 65 0
-11 15 -35 -41 -44 -61 64 -65 0
-11 -15 35 -44 -61 64 -65 0
11 -15 35 -44 61 64 -65 0
11 -15 41 44 61 64 65 0
11 -15 -35 -41 44 -61 -64 -65 0
-11 -15 41 44 -61 -64 -65 0
11 -15 41 -44 -61 -64 -65 0
-11 -15 41 44 61 -64 65 0
-11 -15 -35 -41 44 -61 64 -65 0
-11 -15 -35 -41 -44 61 64 -65 0
-11 -15 35 -44 -61 -64 65 0
-11 -15 -35 -41 44 61 64 65 0
11 -15 -35 -41 -44 -61 -64 65 0
-11 -15 41 -44 -61 -64 65 0
-11 -15 -35 -41 -44 -61 64 65 0
4 8 -66 0
4 -8 66 0
-11 -15 35 -44 61 -64 -65 0
-4 8 66 0
-4 -8 -66 0
-11 -15 35 -44 61 64 65 0
-12 -16 -36 -41 -45 62 -66 67 0
12 -16 -36 -41 -45 62 66 67 0
-12 -16 -36 -41 -45 -62 -66 -67 0
-12 16 -36 -41 -45 62 66 67 0
12 -16 -36 -41 -45 -62 66 -67 0
-12 -16 -36 -41 45 62 -66 -67 0
12 -16 36 -45 62 -66 67 0
12 -16 -36 -41 45 62 66 -67 0
12 -16 36 -45 -62 -66 -67 0
-12 -16 36 45 -62 -66 -67 0
12 -16 36 45 -62 66 -67 0
12 -16 36 45 62 -66 -67 0
12 -16 41 -45 -62 66 67 0
12 -16 36 -45 -62 66 67 0
12 -16 41 45 -62 66 -67 0
12 -16 -36 -41 -45 62 -66 -67 0
-12 -16 36 45 -62 66 67 0
-12 16 -36 -41 45 -62 66 67 0
12 -16 41 45 -62 -66 67 0
12 -16 41 45 62 -66 -67 0
12 -16 41 -45 62 -66 67 0
12 -16 41 -45 62 66 -67 0
-12 16 -36 -41 -45 -62 66 -67 0
-12 -16 36 -45 -62 66 -67 0
12 -16 41 45 62 66 67 0
12 -16 -36 -41 45 -62 -66 -67 0
12 -16 41 -45 -62 -66 -67 0
-12 -16 41 45 62 -66 67 0
-12 -16 -36 -41 -45 62 66 -67 0
-12 -16 36 -45 -62 -66 67 0
12 -16 -36 -41 -45 -62 -66 67 0
-12 -16 41 -45 -62 -66 67 0
-46 -63 -68 0
46 -50 54 -56 58 63 65 -67 68 0
46 50 -54 56 -58 63 65 -67 71 0
46 50 -54 -56 58 63 65 -67 70 0
46 63 65 67 -71 0
-46 -65 -68 0
46 -50 54 -56 58 63 -65 67 68 0
46 50 -54 56 -58 63 -65 67 71 0
46 50 -54 -56 58 63 -65 67 70 0
12 16 -36 -41 45 -62 -66 67 0
-46 -67 -68 0
46 -50 54 -56 58 -63 65 67 68 0
46 50 -54 56 -58 -63 65 67 71 0
46 50 -54 -56 58 -63 65 67 70 0
-63 -67 -71 0
46 63 65 67 -69 0
-46 -50 54 -56 58 63 65 67 68 0
-46 50 -54 56 -58 63 65 67 71 0
-46 50 -54 -56 58 63 65 67 70 0
12 16 -36 -41 -45 -62 -66 -67 0
-46 -63 -69 0
-12 16 36 -45 62 66 -67 0
-12 -16 36 -45 62 -66 -67 0
-65 -67 -68 0
46 -50 54 56 -58 -63 65 67 69 0
50 -68 0
-54 -68 0
56 -68 0
-58 -68 0
-46 -63 -70 0
46 -50 54 56 -58 63 -65 67 69 0
-46 -68 96 -104 0
-46 -68 94 -104 0
46 -94 -96 -104 0
-46 -67 -69 0
-12 16 36 45 -62 66 -67 0
-63 -68 96 -104 0
-63 -68 95 -104 0
63 -95 -96 -104 0
-77 -95 -96 0
-77 -95 -99 0
-65 -68 96 -104 0
-65 -68 77 -104 0
65 -77 -96 -104 0
-12 16 36 45 -62 -66 67 0
-12 16 41 -45 62 -66 67 0
12 16 36 45 -62 -66 -67 0
12 16 41 45 -62 -66 -67 0
12 16 36 -45 62 -66 -67 0
-67 68 -96 -104 0
12 16 -36 -41 -45 -62 66 67 0
-67 -68 96 -104 0
12 16 36 -45 -62 -66 67 0
12 16 36 45 -62 66 67 0
50 -69 0
-54 -69 0
-56 -69 0
58 -69 0
-46 -63 -71 0
-46 -65 -69 0
46 -94 -97 -104 0
11 15 41 44 61 -64 65 0
11 -15 -35 -41 44 -61 64 65 0
-63 -69 97 -104 0
63 -95 -97 -104 0
-11 15 41 44 61 64 65 0
-11 15 -35 -41 -44 -61 -64 65 0
-65 -69 97 -104 0
-65 -69 77 -104 0
65 -77 -97 -104 0
-11 15 41 44 -61 -64 65 0
-11 -15 -35 -41 44 -61 -64 65 0
11 15 41 44 -61 -64 -65 0
-67 -69 97 -104 0
11 15 -35 -41 -44 -61 64 65 0
11 15 41 -44 61 -64 -65 0
-67 69 -97 -104 0
11 15 35 -44 -61 64 -65 0
11 15 41 -44 -61 -64 65 0
11 15 41 44 -61 64 65 0
-50 -70 0
54 -70 0
56 -70 0
-58 -70 0
46 -50 54 56 -58 63 65 -67 69 0
-46 -65 -70 0
-46 -70 98 -104 0
-46 -70 94 -104 0
46 -94 -98 -104 0
34 59 60 -61 -62 -63 0
41 59 60 62 -79 95 0
-63 -70 95 -104 0
63 -95 -98 -104 0
-28 32 40 -49 53 57 -58 0
-28 32 41 49 -53 57 -58 0
65 -77 -98 -104 0
-28 32 40 -49 53 -57 58 0
-28 32 40 49 53 -57 -58 0
28 32 40 -49 53 -57 -58 0
-67 70 -98 -104 0
-67 -70 98 -104 0
28 32 41 -49 53 -57 -58 0
-28 -32 -40 -41 49 -53 -57 58 0
28 32 -40 -41 49 -53 57 -58 0
28 32 40 49 -53 -57 -58 0
28 32 40 -49 53 57 58 0
-50 -71 0
54 -71 0
-56 -71 0
58 -71 0
-65 -67 -71 0
-46 -65 -71 0
46 -94 -99 -104 0
28 32 41 49 53 57 -58 0
27 31 -39 -41 -48 -52 -55 -56 0
63 -95 -99 -104 0
-27 31 41 -48 -52 55 56 0
-27 31 -39 -41 48 -52 -55 -56 0
65 -77 -99 -104 0
-27 31 41 -48 52 -55 56 0
-27 31 41 48 52 -55 -56 0
27 31 41 -48 52 -55 -56 0
27 31 -39 -41 48 -52 55 -56 0
27 31 39 48 52 -55 56 0
-67 71 -99 -104 0
27 31 39 48 -52 55 56 0
-67 -71 99 -104 0
27 31 41 48 -52 -55 -56 0
27 31 41 -48 52 55 56 0
-50 -58 -73 0
-46 50 54 56 -58 63 -65 67 72 0
46 50 54 56 -58 -63 65 -67 75 0
46 50 54 56 -58 -63 -65 67 74 0
-50 -56 -74 0
-46 50 54 -56 58 63 -65 67 72 0
46 50 54 -56 58 -63 65 -67 75 0
46 50 54 -56 58 -63 -65 67 74 0
-50 -54 -72 0
-46 50 -54 56 58 63 -65 67 72 0
46 50 -54 56 58 -63 65 -67 75 0
46 50 -54 56 58 -63 -65 67 74 0
-50 -54 -103 0
-46 -50 54 56 58 63 -65 67 72 0
46 -50 54 56 58 -63 65 -67 75 0
46 -50 54 56 58 -63 -65 67 74 0
50 54 56 -58 -67 77 94 -95 103 0
46 -72 0
-63 -72 0
65 -72 0
-67 -72 0
-56 -58 -100 0
50 54 56 -58 67 -77 -94 95 100 0
-50 -56 -100 0
-50 -72 100 -104 0
50 -54 56 58 -67 77 94 -95 103 0
-50 -56 -73 0
-50 -54 -73 0
-46 50 -54 56 58 63 65 -67 73 0
-50 54 56 58 67 -77 94 -95 102 0
-54 -56 -73 0
-54 -72 100 -104 0
-50 -56 -102 0
-54 -56 -74 0
-54 -56 -72 0
-26 30 41 -51 52 53 -54 0
26 30 38 -51 52 53 54 0
26 30 -38 -41 51 -52 53 -54 0
-56 -72 100 -104 0
26 30 38 -51 -52 53 -54 0
26 30 -38 -41 51 52 53 54 0
26 30 41 51 52 -53 54 0
-58 72 -100 -104 0
-58 -72 100 -104 0
-25 29 41 -47 48 49 -50 0
26 30 41 51 -52 53 54 0
25 29 37 -47 48 49 50 0
26 30 41 51 -52 -53 -54 0
25 29 41 -47 -48 -49 50 0
46 -73 0
-63 -73 0
-65 -73 0
67 -73 0
-56 -58 -73 0
-50 -58 -75 0
25 29 37 47 -48 -49 -50 0
25 29 41 47 -48 -49 -50 0
25 29 37 47 48 -49 50 0
33 42 43 -44 45 46 0
-50 -73 101 -104 0
25 29 37 47 48 49 -50 0
33 42 43 44 45 -46 0
41 42 43 -44 -45 -46 0
-54 -73 101 -104 0
41 42 43 44 -45 46 0
-56 -58 -101 0
41 42 43 44 45 -46 0
-56 -73 101 -104 0
-56 -58 -102 0
-58 73 -101 -104 0
-54 -58 -102 0
-54 -58 -103 0
-58 -73 101 -104 0
-46 -74 0
63 -74 0
65 -74 0
-67 -74 0
-56 -58 -75 0
-50 -58 -101 0
-50 -74 102 -104 0
-54 -58 -101 0
-54 -74 102 -104 0
-54 -58 -100 0
-56 -74 102 -104 0
-54 -58 -72 0
-58 74 -102 -104 0
-58 -74 102 -104 0
-54 -58 -73 0
-54 -58 -74 0
-46 -75 0
63 -75 0
-65 -75 0
67 -75 0
-50 -58 -72 0
-50 -75 103 -104 0
-54 -58 -75 0
-54 -75 103 -104 0
-54 -56 -103 0
-56 -75 103 -104 0
-54 -56 -102 0
-58 -75 103 -104 0
-54 -56 -101 0
-33 -41 42 43 -44 45 -46 0
-33 -41 -42 43 45 78 -94 0
41 -42 -43 -44 -45 -46 0
-33 -41 -42 43 -44 45 46 0
-33 -41 -42 43 -45 78 94 0
-21 22 23 24 45 0
-33 -41 -42 43 44 -45 46 0
-33 -41 -42 43 -44 -45 -46 0
-33 -41 -42 43 44 45 -46 0
33 -42 43 -45 78 -94 0
33 -42 43 -44 45 -46 0
33 -42 43 45 78 94 0
-33 -41 42 -43 44 45 -46 0
33 42 -43 -44 -45 46 0
12 -16 36 45 -62 -66 67 0
33 42 -43 44 45 46 0
33 -42 -43 44 45 -46 0
-63 -65 -68 0
-33 -41 -42 -43 44 45 46 0
-33 -41 -42 -43 44 -45 -46 0
-33 -41 42 -43 44 -45 46 0
-33 -41 -42 -43 -44 -45 46 0
-33 -41 42 -43 -44 -45 -46 0
46 63 65 67 -70 0
41 -42 -43 -45 -78 -94 0
33 -42 -43 -44 -45 -46 0
-12 16 41 -45 62 66 -67 0
33 42 -43 44 -45 -46 0
41 -42 -43 45 -78 94 0
-63 -65 -71 0
33 -42 -43 -45 -78 -94 0
-33 -41 42 -43 -44 45 46 0
-63 -67 -69 0
46 63 65 67 -68 0
12 16 41 45 62 -66 67 0
-12 -16 41 45 62 66 -67 0
33 42 -43 -44 45 -46 0
-63 -65 -70 0
-65 -67 -70 0
-33 -41 42 43 -44 -45 46 0
33 42 43 -45 -78 -94 0
-33 -41 42 43 44 45 46 0
33 42 43 45 78 -94 0
25 29 -37 -41 -47 48 49 -50 0
-25 29 -37 -41 47 48 49 -50 0
-25 29 37 47 -48 -49 50 0
-25 -29 41 47 48 -49 50 0
-25 -29 41 -47 -48 49 -50 0
-25 -29 37 47 48 49 -50 0
-25 -29 41 47 -48 49 50 0
25 -29 -37 -41 -47 48 49 50 0
-1 2 3 4 48 0
-25 -29 37 -47 48 49 50 0
25 -29 37 47 -48 49 -50 0
-25 -29 41 -47 48 -49 -50 0
-25 -29 -37 -41 47 48 -49 -50 0
-25 -29 -37 -41 47 48 49 50 0
-25 -29 -37 -41 47 -48 -49 50 0
25 -29 37 -47 48 -49 50 0
-25 -29 37 47 -48 49 50 0
-5 6 7 8 49 0
-25 -29 41 47 -48 -49 -50 0
-25 -29 41 47 48 49 -50 0
25 29 41 -47 48 49 50 0
25 29 -37 -41 -47 -48 -49 -50 0
25 -29 -37 -41 47 48 -49 50 0
-25 29 37 47 -48 49 -50 0
-25 29 41 47 -48 49 -50 0
-25 29 37 47 48 -49 -50 0
25 -29 37 47 48 49 50 0
-25 29 41 47 48 -49 -50 0
-25 29 41 47 -48 -49 50 0
-25 29 41 47 48 49 50 0
-25 29 -37 -41 -47 -48 -49 50 0
-25 29 -37 -41 -47 48 49 50 0
-25 29 37 -47 -48 49 50 0
-25 29 37 -47 48 49 -50 0
-25 29 41 -47 48 -49 50 0
-25 29 41 -47 -48 49 50 0
-25 -29 -37 -41 -47 48 -49 50 0
26 30 -38 -41 -51 52 53 -54 0
-26 30 -38 -41 51 52 53 -54 0
-26 30 38 51 -52 -53 54 0
-26 -30 41 51 52 -53 54 0
-26 -30 41 -51 -52 53 -54 0
-26 -30 38 51 52 53 -54 0
-26 -30 41 51 -52 53 54 0
26 -30 -38 -41 -51 52 53 54 0
-9 10 11 12 52 0
-26 -30 38 -51 52 53 54 0
26 -30 38 51 -52 53 -54 0
-26 -30 41 -51 52 -53 -54 0
-26 -30 -38 -41 51 52 -53 -54 0
-26 -30 -38 -41 51 52 53 54 0
-26 -30 -38 -41 51 -52 -53 54 0
26 -30 38 -51 52 -53 54 0
-26 -30 38 51 -52 53 54 0
-13 14 15 16 53 0
-26 -30 41 51 -52 -53 -54 0
-26 -30 41 51 52 53 -54 0
26 30 41 -51 52 53 54 0
26 30 -38 -41 -51 -52 -53 -54 0
-26 30 38 51 -52 53 -54 0
26 -30 -38 -41 51 52 -53 54 0
-26 30 41 51 -52 53 -54 0
-26 30 38 51 52 -53 -54 0
26 -30 38 51 52 53 54 0
-26 30 41 51 52 -53 -54 0
-26 30 41 51 -52 -53 54 0
-26 30 41 51 52 53 54 0
-26 30 -38 -41 -51 -52 -53 54 0
-26 30 38 -51 -52 53 54 0
-26 30 -38 -41 -51 52 53 54 0
-26 30 38 -51 52 53 -54 0
-26 30 41 -51 52 -53 54 0
-26 30 41 -51 -52 53 54 0
-26 -30 -38 -41 -51 52 -53 54 0
27 31 -39 -41 48 52 -55 -56 0
-27 31 -39 -41 48 52 55 -56 0
-27 31 39 -48 -52 55 56 0
-27 -31 41 48 -52 55 56 0
-27 -31 41 -48 52 -55 -56 0
-27 -31 39 48 52 55 -56 0
-27 -31 41 -48 52 55 56 0
27 -31 -39 -41 48 52 -55 56 0
27 -31 39 48 52 55 56 0
-27 -31 39 48 52 -55 56 0
27 -31 39 -48 52 55 -56 0
-27 -31 41 48 -52 -55 -56 0
-27 -31 -39 -41 48 -52 55 -56 0
-27 -31 -39 -41 48 52 55 56 0
-27 -31 -39 -41 -48 -52 55 56 0
27 -31 39 48 -52 -55 56 0
-27 -31 41 48 52 55 -56 0
-27 -31 41 -48 -52 55 -56 0
27 31 -39 -41 48 -52 -55 56 0
28 32 -40 -41 49 53 -57 -58 0
-28 32 -40 -41 49 53 57 -58 0
-28 32 40 -49 -53 57 58 0
-28 -32 41 49 -53 57 58 0
-28 -32 41 -49 53 -57 -58 0
-28 -32 40 49 53 57 -58 0
-28 -32 41 -49 53 57 58 0
28 -32 -40 -41 49 53 -57 58 0
28 -32 40 49 53 57 58 0
-28 -32 40 49 53 -57 58 0
28 -32 40 -49 53 57 -58 0
-28 -32 41 49 -53 -57 -58 0
-28 -32 -40 -41 49 -53 57 -58 0
-28 -32 -40 -41 49 53 57 58 0
-28 -32 -40 -41 -49 -53 57 58 0
28 -32 40 49 -53 -57 58 0
-28 -32 41 49 53 57 -58 0
-28 -32 41 -49 -53 57 -58 0
28 32 -40 -41 49 -53 -57 58 0
28 -32 -40 -41 49 -53 57 58 0
28 32 -40 -41 -49 -53 -57 -58 0
-28 32 40 49 53 57 58 0
-34 -41 59 60 -61 62 -63 0
-34 -41 -59 60 62 79 -95 0
41 -59 -60 -61 -62 -63 0
-34 -41 -59 60 -61 62 63 0
-34 -41 -59 60 -62 79 95 0
-29 30 31 32 62 0
-34 -41 -59 60 61 -62 63 0
-34 -41 -59 60 -61 -62 -63 0
-34 -41 -59 60 61 62 -63 0
34 -59 60 -62 79 -95 0
34 -59 60 -61 62 -63 0
34 -59 60 62 79 95 0
-34 -41 59 -60 61 62 -63 0
34 59 -60 -61 -62 63 0
-63 -65 -69 0
34 59 -60 61 62 63 0
34 -59 -60 61 62 -63 0
-12 16 36 45 62 66 67 0
-34 -41 -59 -60 61 62 63 0
-34 -41 -59 -60 61 -62 -63 0
-34 -41 59 -60 61 -62 63 0
-34 -41 -59 -60 -61 -62 63 0
-34 -41 59 -60 -61 -62 -63 0
-63 -67 -70 0
41 -59 -60 -62 -79 -95 0
34 -59 -60 -61 -62 -63 0
12 16 -36 -41 -45 62 -66 67 0
34 59 -60 61 -62 -63 0
41 -59 -60 62 -79 95 0
-12 -16 41 -45 -62 66 -67 0
34 -59 -60 -62 -79 -95 0
-34 -41 59 -60 -61 62 63 0
12 -16 -36 -41 45 -62 66 67 0
-65 -67 -69 0
-63 -67 -68 0
-12 16 41 45 62 66 67 0
34 59 -60 -61 62 -63 0
-12 -16 36 -45 62 66 67 0
-12 16 41 -45 -62 66 67 0
11 -15 35 44 -61 -64 65 0
-11 -15 41 44 61 64 -65 0
-11 -15 41 -44 -61 64 -65 0
11 15 -35 -41 44 -61 -64 65 0
12 16 -36 -41 45 62 -66 -67 0
-12 16 -36 -41 45 62 66 -67 0
-12 16 36 -45 -62 66 67 0
-12 -16 41 45 -62 66 67 0
-12 -16 41 -45 62 -66 -67 0
-12 -16 36 45 62 66 -67 0
-12 -16 41 -45 62 66 67 0
12 -16 -36 -41 45 62 -66 67 0
12 -16 36 45 62 66 67 0
-12 -16 36 45 62 -66 67 0
12 -16 36 -45 62 66 -67 0
-12 -16 41 45 -62 -66 -67 0
-12 -16 -36 -41 45 -62 66 -67 0
-12 -16 -36 -41 45 62 66 67 0
-12 -16 -36 -41 -45 -62 66 67 0
-67 -95 -99 0
-50 54 -56 58 -67 77 94 95 96 0
50 -54 56 -58 -67 77 94 95 99 0
50 -54 -56 58 -67 77 94 95 98 0
-77 -94 -99 0
67 77 94 95 -96 0
-50 54 -56 58 67 -77 94 95 96 0
50 -54 56 -58 67 -77 94 95 99 0
50 -54 -56 58 67 -77 94 95 98 0
-67 -95 -98 0
-77 -94 -98 0
-50 54 -56 58 67 77 94 -95 96 0
50 -54 56 -58 67 77 94 -95 99 0
50 -54 -56 58 67 77 94 -95 98 0
-12 16 -36 -41 -45 -62 -66 67 0
-67 -94 -99 0
-50 54 -56 58 67 77 -94 95 96 0
50 -54 56 -58 67 77 -94 95 99 0
50 -54 -56 58 67 77 -94 95 98 0
-94 -95 -99 0
-94 -95 -96 0
-67 -77 -99 0
-67 -77 -98 0
-67 -77 -97 0
-50 54 56 -58 67 77 94 -95 97 0
50 -96 0
-54 -96 0
56 -96 0
-58 -96 0
-94 -95 -97 0
-50 54 56 -58 67 -77 94 95 97 0
-12 16 41 45 -62 66 -67 0
-67 -94 -97 0
-46 -67 -70 0
-46 -67 -71 0
-67 -94 -98 0
68 -94 -96 -104 0
-50 54 56 -58 67 77 -94 95 97 0
68 -95 -96 -104 0
-77 -94 -96 0
-67 -95 -96 0
-77 -95 -97 0
-77 -95 -98 0
-12 16 -36 -41 -45 62 -66 -67 0
-56 -58 -103 0
-12 16 -36 -41 45 -62 -66 -67 0
-12 16 36 45 62 -66 -67 0
-12 16 41 -45 -62 -66 -67 0
-12 16 36 -45 62 -66 67 0
-12 16 -36 -41 45 62 -66 67 0
-12 16 41 45 62 -66 -67 0
68 -77 -96 -104 0
-12 -16 -36 -41 45 -62 -66 67 0
12 16 41 -45 -62 -66 67 0
12 16 36 45 62 -66 67 0
12 16 36 -45 62 66 67 0
12 16 36 45 62 66 -67 0
12 16 -36 -41 45 -62 66 -67 0
12 16 -36 -41 -45 62 66 -67 0
12 16 41 -45 62 66 67 0
12 16 41 -45 62 -66 -67 0
12 16 41 45 -62 66 67 0
50 -97 0
-54 -97 0
-56 -97 0
58 -97 0
-94 -95 -98 0
67 77 94 95 -97 0
11 15 -35 -41 -44 -61 -64 -65 0
-46 -69 94 -104 0
-11 15 35 44 -61 64 -65 0
12 16 41 45 62 66 -67 0
12 16 41 -45 -62 66 -67 0
-11 15 35 44 61 64 65 0
69 -94 -97 -104 0
-46 -69 97 -104 0
-11 15 41 -44 61 64 -65 0
-11 15 -35 -41 44 -61 -64 -65 0
-63 -69 95 -104 0
-11 15 35 -44 61 -64 65 0
-11 15 41 -44 -61 64 65 0
-11 15 41 44 -61 64 -65 0
-11 15 35 44 -61 -64 65 0
69 -95 -97 -104 0
-11 15 35 -44 -61 -64 -65 0
69 -77 -97 -104 0
-11 15 41 44 61 -64 -65 0
11 15 35 44 -61 -64 -65 0
-11 15 41 -44 61 -64 65 0
-11 15 35 44 61 -64 -65 0
11 15 35 -44 -61 -64 65 0
11 15 35 44 61 -64 65 0
11 15 -35 -41 44 61 64 65 0
11 15 -35 -41 -44 61 64 -65 0
11 15 41 -44 61 64 65 0
11 15 41 44 61 64 -65 0
11 15 35 44 -61 64 65 0
11 15 35 -44 61 64 65 0
34 59 60 62 -79 95 0
11 15 -35 -41 44 -61 64 -65 0
34 59 60 -62 79 95 0
-50 -98 0
54 -98 0
56 -98 0
-58 -98 0
-50 54 56 -58 -67 77 94 95 97 0
67 77 94 95 -98 0
41 59 60 -62 -79 -95 0
41 59 60 62 79 -95 0
34 59 60 61 -62 63 0
34 59 60 -61 62 63 0
41 59 60 -61 62 63 0
70 -94 -98 -104 0
41 59 60 61 -62 63 0
-28 32 41 -49 53 57 -58 0
-28 32 41 49 53 57 58 0
41 59 60 61 62 -63 0
41 59 60 -61 -62 -63 0
-28 32 -40 -41 -49 53 -57 -58 0
70 -95 -98 -104 0
-63 -70 98 -104 0
-28 32 -40 -41 49 -53 -57 -58 0
70 -77 -98 -104 0
-28 32 40 -49 -53 -57 -58 0
-65 -70 77 -104 0
-28 32 41 49 -53 -57 58 0
-28 32 -40 -41 49 53 -57 58 0
-28 32 -40 -41 -49 -53 -57 58 0
-28 32 41 -49 -53 -57 -58 0
-65 -70 98 -104 0
-28 32 41 49 53 -57 -58 0
28 32 41 49 -53 -57 -58 0
28 32 40 -49 -53 -57 58 0
28 32 -40 -41 49 53 57 58 0
28 32 40 -49 -53 57 -58 0
28 32 -40 -41 -49 53 57 -58 0
28 32 41 -49 -53 -57 58 0
28 32 40 49 53 57 -58 0
28 32 40 49 53 -57 58 0
28 32 41 -49 53 57 58 0
-50 -99 0
54 -99 0
-56 -99 0
58 -99 0
-67 -77 -96 0
67 77 94 95 -99 0
71 -94 -99 -104 0
27 31 -39 -41 -48 52 -55 56 0
-46 -71 94 -104 0
-27 31 39 -48 52 55 -56 0
28 32 41 -49 -53 57 -58 0
28 32 41 49 -53 57 58 0
-27 31 39 48 -52 55 -56 0
-46 -71 99 -104 0
-27 31 39 48 52 55 56 0
71 -95 -99 -104 0
-27 31 -39 -41 -48 52 -55 -56 0
-63 -71 95 -104 0
-27 31 -39 -41 48 52 -55 56 0
-27 31 41 48 -52 55 -56 0
-27 31 41 -48 52 55 -56 0
-27 31 39 -48 52 -55 56 0
-63 -71 99 -104 0
-27 31 39 48 -52 -55 56 0
71 -77 -99 -104 0
-27 31 41 -48 -52 -55 -56 0
-65 -71 77 -104 0
27 31 39 -48 52 -55 -56 0
-27 31 39 48 52 -55 -56 0
-27 31 39 -48 -52 -55 -56 0
27 31 39 48 -52 -55 -56 0
-65 -71 99 -104 0
27 31 39 -48 -52 -55 56 0
27 31 -39 -41 -48 -52 55 56 0
27 31 41 -48 -52 -55 56 0
27 31 39 48 52 55 -56 0
27 31 41 -48 -52 55 -56 0
27 31 39 -48 52 55 56 0
27 31 -39 -41 48 52 55 56 0
27 31 41 48 52 55 -56 0
27 31 -39 -41 -48 52 55 -56 0
-26 30 41 -51 -52 -53 -54 0
-56 -58 -72 0
-54 -56 -100 0
-54 -56 -75 0
50 54 -56 58 67 -77 -94 95 100 0
94 -100 0
-95 -100 0
77 -100 0
-67 -100 0
-56 -58 -74 0
50 54 -56 58 -67 77 94 -95 103 0
50 -54 56 58 67 -77 -94 95 100 0
50 -54 56 58 -67 -76 -94 95 101 0
-50 54 56 58 -67 -76 -94 95 101 0
-50 54 56 58 67 -77 -94 95 100 0
-50 -54 -74 0
-50 -54 -75 0
-50 -54 -100 0
50 -54 56 58 67 -77 94 -95 102 0
-50 -54 -101 0
-50 -56 -72 0
-50 -58 -102 0
-50 -58 -103 0
-50 -56 -103 0
-50 -56 -101 0
-50 -58 -100 0
26 30 41 -51 -52 53 -54 0
26 30 38 -51 52 -53 -54 0
26 30 -38 -41 51 -52 -53 54 0
26 30 38 51 52 -53 54 0
26 30 41 -51 -52 -53 54 0
26 30 41 -51 52 -53 -54 0
26 30 38 51 -52 -53 -54 0
26 30 38 -51 -52 -53 54 0
26 30 38 51 52 53 -54 0
25 29 37 -47 -48 49 -50 0
26 30 41 51 52 53 -54 0
25 29 41 -47 48 -49 -50 0
25 29 -37 -41 47 48 -49 -50 0
25 29 37 -47 -48 -49 50 0
25 29 37 -47 48 -49 -50 0
25 29 -37 -41 47 -48 -49 50 0
-25 29 41 -47 -48 -49 -50 0
25 29 -37 -41 47 48 49 50 0
94 -101 0
-95 -101 0
76 -101 0
67 -101 0
-46 50 54 56 -58 63 65 -67 73 0
-46 50 54 -56 58 63 65 -67 73 0
25 29 41 47 48 49 -50 0
25 29 41 47 -48 49 50 0
33 42 43 -44 -45 -46 0
41 42 43 45 -78 94 0
33 42 43 -45 78 94 0
33 42 43 45 -78 94 0
41 42 43 -45 78 94 0
25 29 41 47 48 -49 50 0
41 42 43 45 78 -94 0
-94 -102 0
95 -102 0
77 -102 0
-67 -102 0
50 54 56 -58 -67 -76 -94 95 101 0
50 54 -56 58 -67 -76 -94 95 101 0
-94 -103 0
95 -103 0
-77 -103 0
67 -103 0
50 54 56 -58 67 -77 94 -95 102 0
50 54 -56 58 67 -77 94 -95 102 0
-58 75 -103 -104 0
-67 -94 -96 0
-46 -50 54 56 -58 63 65 67 69 0
-67 -95 -97 0
-77 -94 -97 0
-12 16 41 45 -62 -66 67 0
-12 16 36 -45 -62 -66 -67 0
12 16 36 -45 -62 66 -67 0
12 16 -36 -41 45 62 66 67 0
-11 15 35 -44 61 64 -65 0
11 15 -35 -41 -44 61 -64 65 0
-11 15 -35 -41 44 61 -64 65 0
-11 15 -35 -41 -44 61 -64 -65 0
11 15 35 -44 61 -64 -65 0
-11 15 41 -44 -61 -64 -65 0
11 15 41 -44 -61 64 -65 0
11 15 35 44 61 64 -65 0
41 59 60 -62 79 95 0
34 59 60 61 62 -63 0
-28 32 41 -49 -53 57 58 0
-28 32 40 49 -53 57 -58 0
-28 32 41 -49 53 -57 58 0
-28 32 40 49 -53 -57 58 0
28 32 40 49 -53 57 58 0
28 32 -40 -41 -49 -53 57 58 0
27 -31 -39 -41 48 -52 55 56 0
27 31 41 48 52 -55 56 0
-27 31 -39 -41 -48 -52 -55 56 0
-27 31 41 48 52 55 56 0
-27 -31 -39 -41 48 -52 -55 56 0
-27 31 41 48 -52 -55 56 0
27 31 41 48 -52 55 56 0
27 31 39 -48 -52 55 -56 0
-50 54 56 58 -67 77 94 -95 103 0
-50 -56 -75 0
-46 -50 54 56 58 63 65 -67 73 0
-50 72 -100 -104 0
-50 -58 -74 0
-50 -54 -102 0
-54 72 -100 -104 0
26 30 38 51 -52 53 54 0
26 30 -38 -41 51 52 -53 -54 0
-56 72 -100 -104 0
25 29 -37 -41 47 -48 49 -50 0
25 29 41 -47 -48 49 -50 0
41 42 43 -45 -78 -94 0
25 29 37 47 -48 49 50 0
33 42 43 44 -45 46 0
-50 73 -101 -104 0
41 42 43 -44 45 46 0
-54 73 -101 -104 0
-56 73 -101 -104 0
-50 74 -102 -104 0
-54 74 -102 -104 0
-56 74 -102 -104 0
-50 75 -103 -104 0
-54 75 -103 -104 0
-56 75 -103 -104 0
-17 -80 -105 0
17 80 -105 0
-18 -81 -106 0
18 81 -106 0
-19 -82 -107 0
19 82 -107 0
-20 -83 -108 0
20 83 -108 0
-25 -84 -109 0
25 84 -109 0
-26 -85 -110 0
26 85 -110 0
-27 -86 -111 0
27 86 -111 0
-28 -87 -112 0
28 87 -112 0
-3 -88 -113 0
3 88 -113 0
-7 -89 -114 0
7 89 -114 0
-11 -15 -35 41 -90 -91 -92 93 104 105 106 107 108 109 110 111 112 113 114 0
11 -15 35 41 90 -91 92 93 104 105 106 107 108 109 110 111 112 113 114 0
-11 -15 35 -41 -90 -91 92 -93 104 105 106 107 108 109 110 111 112 113 114 0
-11 -15 -35 -41 -90 -91 -92 -93 104 105 106 107 108 109 110 111 112 113 114 0
-11 15 -35 -41 -90 91 -92 -93 104 105 106 107 108 109 110 111 112 113 114 0
11 -15 35 -41 90 -91 92 -93 104 105 106 107 108 109 110 111 112 113 114 0
-11 15 -35 41 -90 91 -92 93 104 105 106 107 108 109 110 111 112 113 114 0
-11 -15 35 41 -90 -91 92 93 104 105 106 107 108 109 110 111 112 113 114 0
-11 15 35 41 -90 91 92 93 104 105 106 107 108 109 110 111 112 113 114 0
11 15 -35 41 90 91 -92 93 104 105 106 107 108 109 110 111 112 113 114 0
11 -15 -35 -41 90 -91 -92 -93 104 105 106 107 108 109 110 111 112 113 114 0
-11 15 35 -41 -90 91 92 -93 104 105 106 107 108 109 110 111 112 113 114 0
11 15 -35 -41 90 91 -92 -93 104 105 106 107 108 109 110 111 112 113 114 0
11 15 35 -41 90 91 92 -93 104 105 106 107 108 109 110 111 112 113 114 0
11 -15 -35 41 90 -91 -92 93 104 105 106 107 108 109 110 111 112 113 114 0
11 15 35 41 90 91 92 93 104 105 106 107 108 109 110 111 112 113 114 0
